 Run started: Sat, 02 Dec 2023 19:46:11 -0500

 Atomic calculation performed for H: 1s1

 Converged in 41 iterations to an ae energy of -12.242 eV

   | Pseudopotential Report - Date of generation  2-12-2023   |
   | Element: H Ionic charge:  1.00 Level of theory: PBESOL   |
   | Atomic Solver: Koelling-Harmon                           |
   |               Reference Electronic Structure             |
   |         Orbital         Occupation         Energy        |
   |            1s              1.000           -0.233        |
   |                 Pseudopotential Definition               |
   |        Beta     l      e      Rc     scheme   norm       |
   |          1      0   -0.233   0.599     qc      0         |
   |          2      0    0.250   0.599     qc      0         |
   |         loc     1    0.000   0.599     pn      0         |
   | Augmentation charge Rinner = 0.421                       |
   | No partial core correction                               |
   | "1|0.6|13|15|17|10(qc=8)"                                |
   |      Author: Chris J. Pickard, Cambridge University      |

 Atomic calculation performed for B: 1s2 2s2 2p1

[...]

   | Pseudopotential Report - Date of generation  2-12-2023   |
   | Element: B Ionic charge:  3.00 Level of theory: PBESOL   |
   | Atomic Solver: Koelling-Harmon                           |
   |               Reference Electronic Structure             |
   |         Orbital         Occupation         Energy        |
   |            2s              2.000           -0.344        |
   |            2p              1.000           -0.131        |
   |                 Pseudopotential Definition               |
   |        Beta     l      e      Rc     scheme   norm       |
   |          1      0   -0.344   1.199     qc      0         |
   |          2      0    0.250   1.199     qc      0         |
   |          3      1   -0.131   1.199     qc      0         |
   |          4      1    0.250   1.199     qc      0         |
   |         loc     2    0.000   1.199     pn      0         |
   | Augmentation charge Rinner = 0.838                       |
   | Partial core correction Rc = 0.838                       |
   | "2|1.2|12|14|16|20:21(qc=8)"                             |
   |      Author: Chris J. Pickard, Cambridge University      |

 Atomic calculation performed for C: 1s2 2s2 2p2

[...]

 Atomic calculation performed for N: 1s2 2s2 2p3

[...]

 Atomic calculation performed for O: 1s2 2s2 2p4

 Converged in 57 iterations to an ae energy of -2034.019 eV

   | Pseudopotential Report - Date of generation  2-12-2023   |
   | Element: O Ionic charge:  6.00 Level of theory: PBESOL   |
   | Atomic Solver: Koelling-Harmon                           |
   |               Reference Electronic Structure             |
   |         Orbital         Occupation         Energy        |
   |            2s              2.000           -0.875        |
   |            2p              4.000           -0.330        |
   |                 Pseudopotential Definition               |
   |        Beta     l      e      Rc     scheme   norm       |
   |          1      0   -0.875   1.100     qc      0         |
   |          2      0    0.250   1.100     qc      0         |
   |          3      1   -0.330   1.100     qc      0         |
   |          4      1    0.250   1.100     qc      0         |
   |         loc     2    0.000   1.100     pn      0         |
   | Augmentation charge Rinner = 0.769                       |
   | Partial core correction Rc = 0.769                       |
   | "2|1.1|17|20|23|20:21(qc=8)"                             |
   |      Author: Chris J. Pickard, Cambridge University      |

 Pseudo atomic calculation performed for H 1s1

 Converged in 14 iterations to a total energy of -12.2361 eV

 Pseudo atomic calculation performed for B 2s2 2p1

[...]

 Converged in 14 iterations to a total energy of -430.8367 eV
 Calculation parallelised over 8 processes.
 Data is distributed by k-point(8-way)

 ************************************ Title ************************************

 ***************************** General Parameters ******************************

 output verbosity                               : normal  (1)
 write checkpoint data to                       : +_8-HQ-ipc2-B_opt.check
 type of calculation                            : geometry optimization
 stress calculation                             : on
 density difference calculation                 : off
 electron localisation func (ELF) calculation   : off
 Hirshfeld analysis                             : off
 polarisation (Berry phase) analysis            : off
 molecular orbital projected DOS                : off
 deltaSCF calculation                           : off
 unlimited duration calculation
 timing information                             : on
 write extra output files                       : on
 write final potential to formatted file        : off
 write final density to formatted file          : on
 write structure in CELL formatted file         : on
 write BibTeX reference list                    : on
 write OTFG pseudopotential files               : on
 write electrostatic potential file             : on
 write bands file                               : on
 checkpoint writing                             : both castep_bin and check files

 output         length unit                     : A
 output           mass unit                     : amu
 output           time unit                     : ps
 output         charge unit                     : e
 output           spin unit                     : hbar/2
 output         energy unit                     : eV
 output          force unit                     : eV/A
 output       velocity unit                     : A/ps
 output       pressure unit                     : GPa
 output     inv_length unit                     : 1/A
 output      frequency unit                     : cm-1
 output force constant unit                     : eV/A**2
 output         volume unit                     : A**3
 output   IR intensity unit                     : (D/A)**2/amu
 output         dipole unit                     : D
 output         efield unit                     : eV/A/e
 output        entropy unit                     : J/mol/K
 output    efield chi2 unit                     : pm/V

 wavefunctions paging                           : none
 random number generator seed                   : randomised (194611874)
 data distribution                              : optimal for this architecture
 optimization strategy                          : maximize speed(+++)

 *********************** Exchange-Correlation Parameters ***********************

 using functional                               : PBE for solids (2008)
 relativistic treatment                         : Koelling-Harmon
 DFT+D: Semi-empirical dispersion correction    : off

 ************************* Pseudopotential Parameters **************************

 pseudopotential representation                 : reciprocal space
 <beta|phi> representation                      : reciprocal space
 spin-orbit coupling                            : off

 **************************** Basis Set Parameters *****************************

 basis set accuracy                             : FINE
 plane wave basis set cut-off                   :   625.8619   eV
 size of standard grid                          :     1.7500
 size of   fine   gmax                          :    22.4293   1/A
 finite basis set correction                    : automatic
 number of sample energies                      :          3
           sample  spacing                      :     5.0000   eV

 **************************** Electronic Parameters ****************************

 number of  electrons                           :  680.0
 net charge of system                           :  0.000
 treating system as non-spin-polarized
 number of bands                                :        340

 ********************* Electronic Minimization Parameters **********************

 Method: Treating system as non-metallic,
         and number of  SD  steps               :          1
         and number of  CG  steps               :          4

 total energy / atom convergence tol.           : 0.1000E-04   eV
 max force / atom convergence tol.              : ignored
 convergence tolerance window                   :          3   cycles
 max. number of SCF cycles                      :        100
 periodic dipole correction                     : NONE

 *********************** Population Analysis Parameters ************************

 Population analysis with cutoff                :  3.000       A
 Population analysis output                     : summary and pdos components

 ********************** Geometry Optimization Parameters ***********************

 optimization method                            : LBFGS
 max. no. of LBFGS updates                      : unbounded
 variable cell method                           : fixed basis quality
 max. number of steps                           :        100
 estimated bulk modulus                         :  500.0       GPa
 estimated <frequency>                          :  1668.       cm-1
 geom line minimiser                            : on
 with line minimiser tolerance                  :     0.4000
 total energy convergence tolerance             : 0.2000E-04   eV/atom
        max ionic |force| tolerance             : 0.5000E-01   eV/A
 max ionic |displacement| tolerance             : 0.1000E-02   A
   max |stress component| tolerance             : 0.1000       GPa
 convergence tolerance window                   :          2   steps
 backup results every                           : 2147483647   steps
 write geom trajectory file                     : on

                                      Unit Cell
        Real Lattice(A)                      Reciprocal Lattice(1/A)
    20.3330000     0.0000000     0.0000000        0.309014179   0.000000000   0.111471325
     0.0000000    10.9550000     0.0000000        0.000000000   0.573544985   0.000000000
    -4.2585793     0.0000000    11.8053802        0.000000000   0.000000000   0.532230659

                       Lattice parameters(A)       Cell Angles
                    a =     20.333000          alpha =   90.000000
                    b =     10.955000          beta  =  109.836000
                    c =     12.550000          gamma =   90.000000

                       Current cell volume =          2629.625015       A**3
                                   density =             0.653241   AMU/A**3
                                           =             1.084733     g/cm^3

                                     Cell Contents
                         Total number of ions in cell =  288
                      Total number of species in cell =    5
                        Max number of any one species =  160

            x  Element    Atom        Fractional coordinates of atoms  x
            x            Number           u          v          w      x
            x  H            1         0.265730   0.315911   0.103820   x
[...]
 * H              57      0.00649             -0.00720              0.00444         *
 * H              58     -0.00649             -0.00720             -0.00444         *
 * H              59      0.00649             -0.00720              0.00444         *
 * H              60     -0.00649             -0.00720             -0.00444         *
[...]
 * C             110     -0.00732             -0.00122             -0.00024         *
 * C             111      0.00732             -0.00122              0.00024         *
 * C             112     -0.00732             -0.00122             -0.00024         *
 * C             113      0.00085              0.00037              0.00168         *
 * C             114     -0.00085              0.00037             -0.00168         *
 * C             115      0.00085              0.00037              0.00168         *
 * C             116     -0.00085              0.00037             -0.00168         *
 * N               1     -0.00595              0.00194             -0.00049         *
 * N               2      0.00595              0.00194              0.00049         *
 * N               3     -0.00595              0.00194             -0.00049         *
 * N               4      0.00595              0.00194              0.00049         *
 * O               1     -0.00074             -0.00029             -0.00231         *
 * O               2      0.00074             -0.00029              0.00231         *
 * O               3     -0.00074             -0.00029             -0.00231         *
 * O               4      0.00074             -0.00029              0.00231         *

 *********** Symmetrised Stress Tensor ***********
 *          Cartesian components (GPa)           *
 *             x             y             z     *
 *  x     -0.208115      0.000000      0.032664  *
 *  y      0.000000     -0.253033      0.000000  *
 *  z      0.032664      0.000000     -0.259367  *
 *  Pressure:    0.2402                          *

 Pseudo atomic calculation performed for H 1s1

[...]

 Converged in 20 iterations to a total energy of -267.1659 eV

 Pseudo atomic calculation performed for O 2s2 2p4

 Converged in 14 iterations to a total energy of -430.8367 eV
Charge spilling parameter for spin component 1 = 1.04%

            Orbital Populations
     Ion    Atom   Orbital             Charge
      H     1      S                    0.705
      H     2      S                    0.705
      H     3      S                    0.705
      H     4      S                    0.705
      H     5      S                    0.703
      H     6      S                    0.703
      H     7      S                    0.703
      H     8      S                    0.703
      H     9      S                    0.704
      H    10      S                    0.704
      H    11      S                    0.704
      H    12      S                    0.704
      H    13      S                    0.723
      H    14      S                    0.723
      H    15      S                    0.723
      H    16      S                    0.723
      H    17      S                    0.712
      H    18      S                    0.712
      H    19      S                    0.712
      H    20      S                    0.712
      H    21      S                    0.722
      H    22      S                    0.722
      H    23      S                    0.722
      H    24      S                    0.722
      H    25      S                    0.731
      H    26      S                    0.731
      H    27      S                    0.731
      H    28      S                    0.731
      H    29      S                    0.758
      H    30      S                    0.758
      H    31      S                    0.758
      H    32      S                    0.758
      H    33      S                    0.764
      H    34      S                    0.764
      H    35      S                    0.764
      H    36      S                    0.764
      H    37      S                    0.788
      H    38      S                    0.788
      H    39      S                    0.788
      H    40      S                    0.788
      H    41      S                    0.780
      H    42      S                    0.780
      H    43      S                    0.780
      H    44      S                    0.780
      H    45      S                    0.772
      H    46      S                    0.772
      H    47      S                    0.772
      H    48      S                    0.772
      H    49      S                    0.773
      H    50      S                    0.773
      H    51      S                    0.773
      H    52      S                    0.773
      H    53      S                    0.753
      H    54      S                    0.753
      H    55      S                    0.753
      H    56      S                    0.753
      H    57      S                    0.780
      H    58      S                    0.780
      H    59      S                    0.780
      H    60      S                    0.780
[...]
      O     1      Px                   1.708
      O     1      Py                   1.612
      O     1      Pz                   1.445
      O     2      S                    1.775
      O     2      Px                   1.708
      O     2      Py                   1.612
      O     2      Pz                   1.445
      O     3      S                    1.776
      O     3      Px                   1.708
      O     3      Py                   1.612
      O     3      Pz                   1.445
      O     4      S                    1.775
      O     4      Px                   1.708
      O     4      Py                   1.612
      O     4      Pz                   1.445
                           Total:     679.983

     Atomic Populations (Mulliken)
Species          Ion     s       p       d       f      Total   Charge (e)
  H               1     0.705   0.000   0.000   0.000   0.705     0.295
  H               2     0.705   0.000   0.000   0.000   0.705     0.295
  H               3     0.705   0.000   0.000   0.000   0.705     0.295
  H               4     0.705   0.000   0.000   0.000   0.705     0.295
  H               5     0.703   0.000   0.000   0.000   0.703     0.297
  H               6     0.703   0.000   0.000   0.000   0.703     0.297
  H               7     0.703   0.000   0.000   0.000   0.703     0.297
  H               8     0.703   0.000   0.000   0.000   0.703     0.297
  H               9     0.704   0.000   0.000   0.000   0.704     0.296
  H              10     0.704   0.000   0.000   0.000   0.704     0.296
  H              11     0.704   0.000   0.000   0.000   0.704     0.296
  H              12     0.704   0.000   0.000   0.000   0.704     0.296
  H              13     0.723   0.000   0.000   0.000   0.723     0.277
  H              14     0.723   0.000   0.000   0.000   0.723     0.277
  H              15     0.723   0.000   0.000   0.000   0.723     0.277
  H              16     0.723   0.000   0.000   0.000   0.723     0.277
  H              17     0.712   0.000   0.000   0.000   0.712     0.288
  H              18     0.712   0.000   0.000   0.000   0.712     0.288
  H              19     0.712   0.000   0.000   0.000   0.712     0.288
  H              20     0.712   0.000   0.000   0.000   0.712     0.288
  H              21     0.722   0.000   0.000   0.000   0.722     0.278
  H              22     0.722   0.000   0.000   0.000   0.722     0.278
  H              23     0.722   0.000   0.000   0.000   0.722     0.278
  H              24     0.722   0.000   0.000   0.000   0.722     0.278
  H              25     0.731   0.000   0.000   0.000   0.731     0.269
  H              26     0.731   0.000   0.000   0.000   0.731     0.269
  H              27     0.731   0.000   0.000   0.000   0.731     0.269
  H              28     0.731   0.000   0.000   0.000   0.731     0.269
  H              29     0.758   0.000   0.000   0.000   0.758     0.242
  H              30     0.758   0.000   0.000   0.000   0.758     0.242
  H              31     0.758   0.000   0.000   0.000   0.758     0.242
  H              32     0.758   0.000   0.000   0.000   0.758     0.242
  H              33     0.764   0.000   0.000   0.000   0.764     0.236
  H              34     0.764   0.000   0.000   0.000   0.764     0.236
  H              35     0.764   0.000   0.000   0.000   0.764     0.236
  H              36     0.764   0.000   0.000   0.000   0.764     0.236
  H              37     0.788   0.000   0.000   0.000   0.788     0.212
  H              38     0.788   0.000   0.000   0.000   0.788     0.212
  H              39     0.788   0.000   0.000   0.000   0.788     0.212
  H              40     0.788   0.000   0.000   0.000   0.788     0.212
  H              41     0.780   0.000   0.000   0.000   0.780     0.220
  H              42     0.780   0.000   0.000   0.000   0.780     0.220
  H              43     0.780   0.000   0.000   0.000   0.780     0.220
  H              44     0.780   0.000   0.000   0.000   0.780     0.220
  H              45     0.772   0.000   0.000   0.000   0.772     0.228
  H              46     0.772   0.000   0.000   0.000   0.772     0.228
  H              47     0.772   0.000   0.000   0.000   0.772     0.228
  H              48     0.772   0.000   0.000   0.000   0.772     0.228
  H              49     0.773   0.000   0.000   0.000   0.773     0.227
  H              50     0.773   0.000   0.000   0.000   0.773     0.227
  H              51     0.773   0.000   0.000   0.000   0.773     0.227
  H              52     0.773   0.000   0.000   0.000   0.773     0.227
  H              53     0.753   0.000   0.000   0.000   0.753     0.247
  H              54     0.753   0.000   0.000   0.000   0.753     0.247
  H              55     0.753   0.000   0.000   0.000   0.753     0.247
  H              56     0.753   0.000   0.000   0.000   0.753     0.247
  H              57     0.780   0.000   0.000   0.000   0.780     0.220
  H              58     0.780   0.000   0.000   0.000   0.780     0.220
  H              59     0.780   0.000   0.000   0.000   0.780     0.220
  H              60     0.780   0.000   0.000   0.000   0.780     0.220
[...]
  C             110     1.344   3.380   0.000   0.000   4.724    -0.724
  C             111     1.344   3.380   0.000   0.000   4.724    -0.724
  C             112     1.344   3.380   0.000   0.000   4.724    -0.724
  C             113     1.342   3.392   0.000   0.000   4.733    -0.733
  C             114     1.342   3.392   0.000   0.000   4.733    -0.733
  C             115     1.342   3.392   0.000   0.000   4.733    -0.733
  C             116     1.342   3.392   0.000   0.000   4.733    -0.733
  N               1     1.452   3.877   0.000   0.000   5.329    -0.329
  N               2     1.452   3.877   0.000   0.000   5.329    -0.329
  N               3     1.452   3.877   0.000   0.000   5.329    -0.329
  N               4     1.452   3.877   0.000   0.000   5.329    -0.329
  O               1     1.776   4.765   0.000   0.000   6.541    -0.541
  O               2     1.776   4.765   0.000   0.000   6.541    -0.541
  O               3     1.776   4.765   0.000   0.000   6.541    -0.541
  O               4     1.776   4.765   0.000   0.000   6.541    -0.541

                 Bond                   Population      Length (A)
             H 21  -- C 29                   0.89        1.09282
             H 24  -- C 32                   0.89        1.09282
             H 22  -- C 30                   0.89        1.09282
             H 23  -- C 31                   0.89        1.09282
             H 4   -- C 4                    0.92        1.09306
             H 3   -- C 3                    0.92        1.09306
             H 1   -- C 1                    0.92        1.09306
             H 2   -- C 2                    0.92        1.09306
             H 5   -- C 5                    0.90        1.09348
             H 8   -- C 8                    0.90        1.09348
             H 7   -- C 7                    0.90        1.09348
             H 6   -- C 6                    0.90        1.09348
             H 16  -- C 24                   0.90        1.09380
             H 14  -- C 22                   0.90        1.09380
             H 13  -- C 21                   0.90        1.09380
             H 15  -- C 23                   0.90        1.09380
             H 11  -- C 11                   0.89        1.09459
             H 9   -- C 9                    0.89        1.09459
             H 12  -- C 12                   0.89        1.09459
             H 10  -- C 10                   0.89        1.09459
             H 20  -- C 28                   0.89        1.09575
             H 19  -- C 27                   0.89        1.09575
             H 18  -- C 26                   0.89        1.09575
             H 17  -- C 25                   0.89        1.09575
             H 149 -- C 113                  0.90        1.09962
             H 151 -- C 115                  0.90        1.09962
             H 150 -- C 114                  0.90        1.09962
             H 152 -- C 116                  0.90        1.09962
             H 55  -- C 55                   0.88        1.10005
             H 53  -- C 53                   0.88        1.10005
             H 56  -- C 56                   0.88        1.10005
             H 54  -- C 54                   0.88        1.10005
             H 84  -- C 76                   0.89        1.10015
             H 83  -- C 75                   0.89        1.10015
             H 82  -- C 74                   0.89        1.10015
             H 81  -- C 73                   0.89        1.10015
             H 118 -- C 94                   0.88        1.10078
             H 117 -- C 93                   0.88        1.10078
             H 120 -- C 96                   0.88        1.10078
             H 119 -- C 95                   0.88        1.10078
             H 139 -- C 111                  0.87        1.10096
             H 140 -- C 112                  0.87        1.10096
             H 138 -- C 110                  0.87        1.10096
             H 137 -- C 109                  0.87        1.10096
             H 71  -- C 71                   0.88        1.10160
             H 72  -- C 72                   0.88        1.10160
             H 70  -- C 70                   0.88        1.10160
             H 69  -- C 69                   0.88        1.10160
             H 27  -- C 39                   0.84        1.10169
             H 25  -- C 37                   0.84        1.10169
             H 28  -- C 40                   0.84        1.10169
             H 26  -- C 38                   0.84        1.10169
             H 102 -- C 78                   0.87        1.10277
             H 101 -- C 77                   0.87        1.10277
             H 104 -- C 80                   0.87        1.10277
             H 103 -- C 79                   0.87        1.10277
             H 35  -- C 39                   0.85        1.10307
             H 33  -- C 37                   0.85        1.10307
             H 36  -- C 40                   0.85        1.10307
             H 34  -- C 38                   0.85        1.10307
[...]
             H 108 -- C 116                 -0.03        2.99445
             H 107 -- C 115                 -0.03        2.99445
             H 105 -- C 113                 -0.03        2.99445
             H 91  -- C 59                  -0.02        2.99524
             H 89  -- C 57                  -0.02        2.99524
             H 92  -- C 60                  -0.02        2.99524
             H 90  -- C 58                  -0.02        2.99524
             H 137 -- H 152                 -0.00        2.99679
             H 140 -- H 149                 -0.00        2.99679
             H 138 -- H 151                 -0.00        2.99679
             H 139 -- H 150                 -0.00        2.99679
             H 84  -- C 52                  -0.02        2.99749
             H 83  -- C 51                  -0.02        2.99749
             H 82  -- C 50                  -0.02        2.99749
             H 81  -- C 49                  -0.02        2.99749

Writing analysis data to +_8-HQ-ipc2-B_opt.castep_bin

Writing model to +_8-HQ-ipc2-B_opt.check

 A BibTeX formatted list of references used in this run has been written to
 +_8-HQ-ipc2-B_opt.bib

Initialisation time =    138.70 s
Calculation time    =  32934.70 s
Finalisation time   =     22.78 s
Total time          =  33096.17 s

Overall parallel efficiency rating: Excellent (92%)

Data was distributed by:-
k-point (8-way); efficiency rating: Excellent (92%)